nN = 6;
nR = 15;
nH = 1;

a = [[5, 10, 23, 23, 21, 9, 12, 17, 11, 23, 12, 24, 6, 8, 8], [19, 19, 11, 25, 14, 17, 9, 19, 23, 6, 15, 24, 11, 14, 17], [13, 13, 12, 22, 12, 8, 20, 17, 16, 7, 5, 14, 8, 11, 25], [5, 15, 10, 16, 24, 12, 12, 12, 15, 7, 12, 25, 15, 20, 15], [16, 11, 14, 22, 13, 17, 16, 12, 19, 8, 9, 10, 19, 15, 18], [8, 21, 15, 23, 7, 21, 8, 25, 6, 6, 6, 10, 6, 8, 9]];
c = [[[0, 0, 0, 0, 0, 0, 0, 0, 0, 0, 0, 0, 0, 0, 0], [46, 45, 42, 35, 36, 43, 45, 41, 39, 40, 34, 44, 49, 46, 35], [43, 38, 46, 34, 49, 50, 49, 36, 37, 33, 34, 37, 30, 44, 46], [31, 49, 35, 50, 42, 38, 33, 36, 41, 45, 46, 43, 48, 42, 48], [41, 43, 46, 48, 34, 38, 45, 40, 43, 32, 42, 41, 48, 32, 40], [42, 45, 31, 33, 38, 34, 47, 47, 43, 46, 30, 49, 36, 47, 31]], [[0, 0, 0, 0, 0, 0, 0, 0, 0, 0, 0, 0, 0, 0, 0], [0, 0, 0, 0, 0, 0, 0, 0, 0, 0, 0, 0, 0, 0, 0], [40, 35, 46, 33, 49, 36, 38, 45, 31, 48, 45, 38, 38, 44, 34], [38, 39, 35, 30, 50, 45, 47, 30, 37, 47, 48, 32, 46, 38, 44], [32, 31, 42, 42, 48, 32, 46, 32, 35, 43, 32, 47, 35, 41, 50], [46, 38, 40, 30, 47, 49, 31, 33, 46, 40, 34, 36, 48, 40, 41]], [[0, 0, 0, 0, 0, 0, 0, 0, 0, 0, 0, 0, 0, 0, 0], [0, 0, 0, 0, 0, 0, 0, 0, 0, 0, 0, 0, 0, 0, 0], [0, 0, 0, 0, 0, 0, 0, 0, 0, 0, 0, 0, 0, 0, 0], [38, 42, 45, 43, 38, 32, 40, 33, 50, 43, 47, 35, 33, 39, 33], [49, 34, 45, 44, 34, 33, 33, 35, 45, 36, 38, 45, 30, 31, 31], [46, 36, 39, 35, 31, 46, 48, 33, 40, 36, 49, 46, 45, 40, 49]], [[0, 0, 0, 0, 0, 0, 0, 0, 0, 0, 0, 0, 0, 0, 0], [0, 0, 0, 0, 0, 0, 0, 0, 0, 0, 0, 0, 0, 0, 0], [0, 0, 0, 0, 0, 0, 0, 0, 0, 0, 0, 0, 0, 0, 0], [0, 0, 0, 0, 0, 0, 0, 0, 0, 0, 0, 0, 0, 0, 0], [30, 30, 36, 42, 44, 47, 42, 35, 36, 35, 44, 38, 42, 42, 49], [47, 33, 41, 47, 39, 41, 32, 32, 38, 30, 34, 30, 30, 31, 30]], [[0, 0, 0, 0, 0, 0, 0, 0, 0, 0, 0, 0, 0, 0, 0], [0, 0, 0, 0, 0, 0, 0, 0, 0, 0, 0, 0, 0, 0, 0], [0, 0, 0, 0, 0, 0, 0, 0, 0, 0, 0, 0, 0, 0, 0], [0, 0, 0, 0, 0, 0, 0, 0, 0, 0, 0, 0, 0, 0, 0], [0, 0, 0, 0, 0, 0, 0, 0, 0, 0, 0, 0, 0, 0, 0], [40, 35, 43, 45, 41, 49, 42, 47, 42, 48, 49, 37, 46, 46, 34]], [[0, 0, 0, 0, 0, 0, 0, 0, 0, 0, 0, 0, 0, 0, 0], [0, 0, 0, 0, 0, 0, 0, 0, 0, 0, 0, 0, 0, 0, 0], [0, 0, 0, 0, 0, 0, 0, 0, 0, 0, 0, 0, 0, 0, 0], [0, 0, 0, 0, 0, 0, 0, 0, 0, 0, 0, 0, 0, 0, 0], [0, 0, 0, 0, 0, 0, 0, 0, 0, 0, 0, 0, 0, 0, 0], [0, 0, 0, 0, 0, 0, 0, 0, 0, 0, 0, 0, 0, 0, 0]]];
Q = [[30], [30], [30], [35], [32], [28]];

q = [[[7], [21], [23], [11], [22], [6], [9], [8], [15], [5], [15], [22], [14], [19], [21]], [[21], [21], [15], [7], [8], [15], [12], [5], [10], [10], [23], [9], [19], [24], [20]], [[18], [15], [19], [9], [13], [17], [21], [21], [15], [8], [24], [5], [9], [17], [13]], [[19], [21], [5], [16], [17], [22], [24], [22], [9], [16], [24], [15], [7], [22], [22]], [[15], [9], [24], [24], [9], [24], [5], [13], [21], [5], [21], [22], [20], [15], [7]], [[5], [17], [7], [9], [6], [9], [7], [25], [12], [20], [8], [23], [24], [10], [21]]];
p = [0.94, 0.51, 0.78, 0.56, 0.83, 0.37, 0.67, 0.29, 0.81, 0.21, 0.34, 0.68, 0.88, 0.54, 0.72];
